letting n_nurses=25
letting n_days=7
letting n_shift_types=4
letting max_covers=10
letting t_covers=61
letting covers=[2,10,0,0,8,1,1,0,8,0,2,0,8,0,2,0,1,0,8,0,3,1,0,0,1,0,5,0]
letting prefes=[1,1,1,4,1,4,1,1,1,4,1,2,1,1,1,4,1,1,1,2,1,3,1,3,1,2,4,2,3,4,1,4,1,4,1,1,2,1,1,2,1,4,1,4,1,4,1,2,1,3,1,3,4,2,4,2,3,1,1,1,1,4,1,1,2,4,1,2,1,4,1,3,1,4,1,2,1,3,1,3,1,1,4,2,3,4,1,4,1,4,1,4,2,1,1,3,1,4,1,4,1,1,3,2,1,3,1,3,1,2,4,2,3,1,1,1,1,4,1,1,1,1,1,2,1,4,1,4,1,1,1,2,1,3,1,3,1,1,4,1,3,1,3,1,1,4,2,1,1,1,1,2,1,1,2,4,1,1,3,2,1,3,2,3,1,1,4,1,1,4,1,4,1,4,2,4,2,1,1,2,1,1,2,4,1,1,3,2,1,3,2,3,1,2,1,2,3,4,3,4,1,2,1,1,2,1,4,2,1,4,1,4,4,1,1,2,2,1,1,3,1,2,1,2,3,1,1,4,3,4,2,1,2,1,1,2,3,4,2,3,1,1,1,2,1,3,2,3,4,2,4,2,3,1,1,4,1,2,1,1,2,1,1,2,1,4,1,4,1,1,1,2,1,3,1,3,1,1,1,2,3,1,3,4,3,2,1,1,2,1,1,2,3,4,1,4,1,1,1,4,2,1,1,3,4,2,4,2,1,1,1,1,1,4,2,1,2,1,1,3,1,1,2,4,1,1,1,2,1,1,2,3,4,1,4,1,3,4,3,4,1,4,1,1,1,1,1,2,1,4,1,4,1,1,1,4,2,3,1,3,1,2,4,2,3,1,1,4,1,4,2,1,2,1,4,2,1,4,2,4,4,1,1,2,1,3,2,3,1,2,4,2,3,1,3,4,1,4,1,1,2,1,4,3,1,4,1,4,4,1,1,2,2,3,1,2,1,2,4,2,3,1,1,4,1,4,1,1,2,1,4,2,1,4,1,4,4,1,3,4,1,3,1,3,1,2,4,2,3,1,1,4,1,4,1,4,2,4,1,2,1,4,1,4,1,4,1,2,1,1,1,2,4,2,4,2,1,1,1,4,3,4,1,1,2,1,1,2,3,4,1,3,1,1,1,2,1,3,1,2,1,2,4,2,3,1,1,4,3,4,1,1,2,4,1,2,3,1,1,4,1,4,1,2,1,3,1,3,1,2,4,2,3,1,1,4,1,4,1,1,1,1,1,2,1,4,1,4,1,1,1,2,2,3,1,3,1,2,1,2,3,1,1,4,1,4,1,1,2,1,1,2,1,4,1,3,1,1,1,2,1,3,1,3,1,2,4,1,3,1,1,4,3,2,1,4,2,1,1,2,3,4,1,4,1,1,1,4,1,3,1,3,1,2,4,2,3,1,1,1,1,4,1,1,2,1,1,3,1,4,1,4,1,4,1,4,1,3,1,3,1,2,4,2,3,1,1,4,1,2,1,4,2,1,1,2,1,4,1,3,1,1,1,2,1,1,1,2,1,2,1,1,1,1,1,4,1,4,1,1,2,4,4,3,1,4,1,4,4,1,3,2,1,3,1,2,1,2,4,2]
letting ub =  210
